c Basic satisfiable formula — exercises the "normal" path in the initializer.
c After init expect:
c   clause_watch_positions = [{0,1}, {0,1}, {0,1}]
c   watches_pos[1] = {0}        (clause 0 watches +1 at position 0)
c   watches_pos[2] = {2}        (clause 2 watches +2 at position 0)
c   watches_pos[3] = {1}        (clause 1 watches +3 at position 1)
c   watches_neg[1] = {1}        (clause 1 watches -1 at position 0)
c   watches_neg[3] = {2}        (clause 2 watches -3 at position 1)
c   unit_propagation_queue = {} (no unit clauses)
p cnf 3 3
1 2 0
-1 3 0
2 -3 0